<number of tasks>
20


<number of equipment>
5


<cycle time>
1000


<investment costs>
1,10477
2,11750
3,29720
4,13220
5,18241


<task times>
1,-1,-1,86,297,280
2,234,-1,95,-1,-1
3,-1,-1,77,214,213
4,-1,-1,74,264,199
5,-1,-1,56,260,199
6,-1,255,91,260,-1
7,-1,-1,66,171,211
8,-1,197,55,209,-1
9,-1,-1,56,279,114
10,282,-1,144,-1,-1
11,-1,-1,67,175,146
12,-1,286,63,197,-1
13,-1,281,88,172,-1
14,-1,-1,56,268,165
15,308,-1,151,-1,-1
16,-1,-1,52,252,148
17,-1,271,142,236,-1
18,-1,-1,124,211,192
19,-1,241,91,187,-1
20,-1,348,62,335,-1


<precedence relations>
1,5
1,6
2,4
3,4
4,5
4,6
5,7
5,8
6,10
6,12
7,9
8,9
9,10
9,11
9,12
10,14
10,15
11,13
11,14
12,13
12,14
12,17
13,16
13,18
14,16
15,16
15,17
16,20
17,19
17,20


<task types>
1,3
2,1
3,3
4,3
5,3
6,2
7,3
8,2
9,3
10,1
11,3
12,2
13,2
14,3
15,1
16,3
17,2
18,3
19,2
20,2


<line depot>
1,1
2,0
3,2
4,1
5,0


<processing costs>
1,7200
2,7200
3,21600
4,14400
5,7200


<saving costs>
1,1047
2,1175
3,2972
4,1322
5,1824


<end>
